\ Model Transportation Problem with Time-Dependent Costs
\ LP format - for model browsing. Use MPS format to capture full model detail.
Minimize
  94.75901349357626 x[0,0,0] + 65.1232591895921 x[0,0,1]
   + 16.24314131840448 x[0,0,2] + 93.33265293347634 x[0,0,3]
   + 29.89429446591681 x[0,0,4] + 70.83575136265952 x[0,0,5]
   + 42.13354395059995 x[0,0,6] + 48.76745811882777 x[0,0,7]
   + 47.74975840843737 x[0,0,8] + 46.22186080049904 x[0,0,9]
   + 15.31955488007526 x[0,1,0] + 19.8704267238449 x[0,1,1]
   + 60.3383822688151 x[0,1,2] + 74.88296200374737 x[0,1,3]
   + 14.51432611449559 x[0,1,4] + 7.911197881016823 x[0,1,5]
   + 77.4948381350235 x[0,1,6] + 85.58682561724855 x[0,1,7]
   + 34.64764906831525 x[0,1,8] + 78.98402317066513 x[0,1,9]
   + 27.45009364362357 x[0,2,0] + 1.253960676499144 x[0,2,1]
   + 72.87904727873972 x[0,2,2] + 83.91011633803571 x[0,2,3]
   + 58.41241500445701 x[0,2,4] + 66.33413455243702 x[0,2,5]
   + 86.66079887532402 x[0,2,6] + 45.20819191127625 x[0,2,7]
   + 48.94979716962032 x[0,2,8] + 33.91155561536419 x[0,2,9]
   + 76.52439508437794 x[0,3,0] + 38.34379536717471 x[0,3,1]
   + 93.35237331581084 x[0,3,2] + 87.09056664017278 x[0,3,3]
   + 98.09668850192683 x[0,3,4] + 24.64174887245868 x[0,3,5]
   + 38.91411404403062 x[0,3,6] + 85.74528462275045 x[0,3,7]
   + 41.66673445940823 x[0,3,8] + 32.49945639614619 x[0,3,9]
   + 47.82464877380102 x[0,4,0] + 91.42958661414296 x[0,4,1]
   + 38.74188354776648 x[0,4,2] + 98.85298619199689 x[0,4,3]
   + 79.44697240929311 x[0,4,4] + 65.54988113865998 x[0,4,5]
   + 16.05842670081209 x[0,4,6] + 96.51761939872013 x[0,4,7]
   + 13.49838071112948 x[0,4,8] + 96.57000542750852 x[0,4,9]
   + 33.86747568920502 x[0,5,0] + 10.93609561432038 x[0,5,1]
   + 84.65890288792785 x[0,5,2] + 10.87145807645586 x[0,5,3]
   + 91.13372609195024 x[0,5,4] + 2.519412193610803 x[0,5,5]
   + 15.2713861807278 x[0,5,6] + 87.22236416357271 x[0,5,7]
   + 97.02572261006952 x[0,5,8] + 8.407996576127173 x[0,5,9]
   + 78.37100383602946 x[0,6,0] + 27.23725517479748 x[0,6,1]
   + 62.7026806516778 x[0,6,2] + 40.35084906469157 x[0,6,3]
   + 8.951216737365453 x[0,6,4] + 33.52799330936217 x[0,6,5]
   + 67.76139202024694 x[0,6,6] + 53.82860892728663 x[0,6,7]
   + 95.45981966964493 x[0,6,8] + 63.05311872179079 x[0,6,9]
   + 88.85642960802301 x[1,0,0] + 49.30680105362772 x[1,0,1]
   + 54.56058525706835 x[1,0,2] + 62.12848669866959 x[1,0,3]
   + 24.24225406710013 x[1,0,4] + 68.75555786618575 x[1,0,5]
   + 29.45052140016232 x[1,0,6] + 23.52114178933106 x[1,0,7]
   + 9.947553746127896 x[1,0,8] + 97.85543509383402 x[1,0,9]
   + 76.27659960643227 x[1,1,0] + 70.68519210357475 x[1,1,1]
   + 10.95021679195893 x[1,1,2] + 17.47011388619329 x[1,1,3]
   + 30.64714194416241 x[1,1,4] + 3.865777690359242 x[1,1,5]
   + 33.11309201134892 x[1,1,6] + 6.555803582395685 x[1,1,7]
   + 36.48787088773599 x[1,1,8] + 43.6379919976846 x[1,1,9]
   + 25.17554578621287 x[1,2,0] + 41.79312314858196 x[1,2,1]
   + 68.49823676392009 x[1,2,2] + 18.8256317289798 x[1,2,3]
   + 18.33186615122755 x[1,2,4] + 61.33968690196514 x[1,2,5]
   + 38.87188556307051 x[1,2,6] + 68.63032341630867 x[1,2,7]
   + 50.26905798442716 x[1,2,8] + 58.73255593455325 x[1,2,9]
   + 23.98665598522008 x[1,3,0] + 64.15255846935329 x[1,3,1]
   + 46.49747941849637 x[1,3,2] + 67.01723100938159 x[1,3,3]
   + 89.99194463833179 x[1,3,4] + 47.06007229700485 x[1,3,5]
   + 29.47553490909544 x[1,3,6] + 55.1132156226008 x[1,3,7]
   + 8.312328128004426 x[1,3,8] + 94.57832785852996 x[1,3,9]
   + 98.77751782662867 x[1,4,0] + 30.61627066325345 x[1,4,1]
   + 96.24087820952076 x[1,4,2] + 69.34103773355278 x[1,4,3]
   + 46.22674545411086 x[1,4,4] + 30.91004538329305 x[1,4,5]
   + 99.93798298451775 x[1,4,6] + 85.4802104073584 x[1,4,7]
   + 11.55867347481373 x[1,4,8] + 38.75506546810527 x[1,4,9]
   + 36.53695660014733 x[1,5,0] + 30.29136663136267 x[1,5,1]
   + 70.22862887552265 x[1,5,2] + 3.172020188096936 x[1,5,3]
   + 83.17371858779156 x[1,5,4] + 40.18476835022537 x[1,5,5]
   + 1.801698610387534 x[1,5,6] + 86.64167237202933 x[1,5,7]
   + 78.05284996123771 x[1,5,8] + 97.38667886596456 x[1,5,9]
   + 91.15107841815234 x[1,6,0] + 74.77204325926304 x[1,6,1]
   + 83.45105106764565 x[1,6,2] + 90.39055692652776 x[1,6,3]
   + 77.79835698073471 x[1,6,4] + 23.78172070607122 x[1,6,5]
   + 80.39126379698347 x[1,6,6] + 22.68144935388244 x[1,6,7]
   + 19.82306693843174 x[1,6,8] + 25.81205320431799 x[1,6,9]
   + 75.80215505042604 x[2,0,0] + 76.97960667505095 x[2,0,1]
   + 68.40465432402026 x[2,0,2] + 14.54114461091579 x[2,0,3]
   + 10.61922905174618 x[2,0,4] + 63.11835267385632 x[2,0,5]
   + 4.902834822120921 x[2,0,6] + 79.07243791700523 x[2,0,7]
   + 4.303088593317611 x[2,0,8] + 37.12126206981851 x[2,0,9]
   + 14.00976883562806 x[2,1,0] + 91.05315341961335 x[2,1,1]
   + 33.34519344568703 x[2,1,2] + 42.13480624845896 x[2,1,3]
   + 20.87868467035754 x[2,1,4] + 78.86476829202002 x[2,1,5]
   + 87.76959907395741 x[2,1,6] + 37.21989553089726 x[2,1,7]
   + 50.67768146421917 x[2,1,8] + 27.98020772052399 x[2,1,9]
   + 17.2898976165059 x[2,2,0] + 91.4908464002929 x[2,2,1]
   + 94.47459379362266 x[2,2,2] + 96.77102354051441 x[2,2,3]
   + 30.21900346807669 x[2,2,4] + 87.16929897317893 x[2,2,5]
   + 80.61902132184655 x[2,2,6] + 47.36480749641684 x[2,2,7]
   + 8.454636729768991 x[2,2,8] + 75.66099781307221 x[2,2,9]
   + 23.33585487420796 x[2,3,0] + 67.95604874713311 x[2,3,1]
   + 67.76621679972321 x[2,3,2] + 40.34373802512663 x[2,3,3]
   + 84.72870368997883 x[2,3,4] + 56.17394917616047 x[2,3,5]
   + 9.939984681289747 x[2,3,6] + 40.06288147254249 x[2,3,7]
   + 27.18139925688996 x[2,3,8] + 13.23528493958574 x[2,3,9]
   + 37.48998020298786 x[2,4,0] + 75.15214875013932 x[2,4,1]
   + 26.95397941672391 x[2,4,2] + 38.72152442797506 x[2,4,3]
   + 64.21637751228285 x[2,4,4] + 37.77589046006101 x[2,4,5]
   + 67.80881898215688 x[2,4,6] + 47.67620993016242 x[2,4,7]
   + 62.33513983740843 x[2,4,8] + 94.37374446972706 x[2,4,9]
   + 33.47262189992021 x[2,5,0] + 61.39813738998288 x[2,5,1]
   + 65.11758568330471 x[2,5,2] + 63.90498831541597 x[2,5,3]
   + 46.96248609594536 x[2,5,4] + 70.40663938162346 x[2,5,5]
   + 65.27470518217451 x[2,5,6] + 12.55091773597839 x[2,5,7]
   + 5.489334290324829 x[2,5,8] + 4.684000694245794 x[2,5,9]
   + 99.59681010074792 x[2,6,0] + 12.49592759178584 x[2,6,1]
   + 24.24520321070158 x[2,6,2] + 54.21711398237005 x[2,6,3]
   + 39.47593728386411 x[2,6,4] + 37.73014003320139 x[2,6,5]
   + 94.98869607277864 x[2,6,6] + 69.95191517212565 x[2,6,7]
   + 54.47905704746804 x[2,6,8] + 59.14669420931214 x[2,6,9]
   + 72.93331590516692 x[3,0,0] + 88.65596460605836 x[3,0,1]
   + 65.83726785185293 x[3,0,2] + 83.53561524633584 x[3,0,3]
   + 61.94956919106448 x[3,0,4] + 93.96625350565188 x[3,0,5]
   + 28.69427386849307 x[3,0,6] + 69.33778571100879 x[3,0,7]
   + 22.5096987850586 x[3,0,8] + 45.02489011812926 x[3,0,9]
   + 24.37515118486857 x[3,1,0] + 36.90591783699472 x[3,1,1]
   + 98.11184411408264 x[3,1,2] + 37.36616089122086 x[3,1,3]
   + 90.26792503004081 x[3,1,4] + 64.83785416564874 x[3,1,5]
   + 6.994458827494267 x[3,1,6] + 28.3122626452971 x[3,1,7]
   + 96.85248071770229 x[3,1,8] + 94.95206803795162 x[3,1,9]
   + 82.59491711122557 x[3,2,0] + 10.07566895793457 x[3,2,1]
   + 21.998475726908 x[3,2,2] + 64.30979893444068 x[3,2,3]
   + 97.13823789443364 x[3,2,4] + 6.007272555624427 x[3,2,5]
   + 34.01740648681908 x[3,2,6] + 98.89326949020075 x[3,2,7]
   + 78.91083189765527 x[3,2,8] + 21.31535193914477 x[3,2,9]
   + 83.15196588449612 x[3,3,0] + 55.86657105765178 x[3,3,1]
   + 59.05192527457463 x[3,3,2] + 81.49224513098484 x[3,3,3]
   + 24.06686922555711 x[3,3,4] + 77.66248920267718 x[3,3,5]
   + 79.07573167348333 x[3,3,6] + 60.00218188226759 x[3,3,7]
   + 28.45020975159261 x[3,3,8] + 98.41878505292615 x[3,3,9]
   + 98.76520313225106 x[3,4,0] + 54.48133022945199 x[3,4,1]
   + 80.05286853220473 x[3,4,2] + 11.88270844105412 x[3,4,3]
   + 86.7783409621733 x[3,4,4] + 14.04851972662785 x[3,4,5]
   + 36.46598564243675 x[3,4,6] + 79.05472191091796 x[3,4,7]
   + 59.29643928299378 x[3,4,8] + 2.562327267604865 x[3,4,9]
   + 27.27138332417236 x[3,5,0] + 13.54909582756525 x[3,5,1]
   + 42.67509513409784 x[3,5,2] + 12.25128137186811 x[3,5,3]
   + 7.292245776566487 x[3,5,4] + 45.37924621271853 x[3,5,5]
   + 36.84185840793369 x[3,5,6] + 59.77293576893468 x[3,5,7]
   + 45.74853657096646 x[3,5,8] + 22.93342588541022 x[3,5,9]
   + 61.89557679215922 x[3,6,0] + 72.99705671920978 x[3,6,1]
   + 90.96641710274747 x[3,6,2] + 66.23140429424993 x[3,6,3]
   + 30.86140257378078 x[3,6,4] + 64.69072773634338 x[3,6,5]
   + 4.083913311524047 x[3,6,6] + 99.86008875384337 x[3,6,7]
   + 84.88255577355703 x[3,6,8] + 43.20108830871919 x[3,6,9]
   + 11.68822113824349 x[4,0,0] + 71.52773017481253 x[4,0,1]
   + 44.91267060693786 x[4,0,2] + 90.02740974722994 x[4,0,3]
   + 32.88907015488628 x[4,0,4] + 15.68504874037609 x[4,0,5]
   + 13.49296724220055 x[4,0,6] + 62.80743193383958 x[4,0,7]
   + 58.95110416626399 x[4,0,8] + 71.50312684620438 x[4,0,9]
   + 38.70953548303356 x[4,1,0] + 60.14179366473202 x[4,1,1]
   + 30.19487684903909 x[4,1,2] + 51.04955637408236 x[4,1,3]
   + 43.58973325653871 x[4,1,4] + 79.51651321706296 x[4,1,5]
   + 12.32699317057788 x[4,1,6] + 65.81658279479107 x[4,1,7]
   + 87.89291509335719 x[4,1,8] + 55.58218761059009 x[4,1,9]
   + 86.6837392545289 x[4,2,0] + 43.57692422497225 x[4,2,1]
   + 88.9210111768608 x[4,2,2] + 41.96754354651443 x[4,2,3]
   + 82.91450325322442 x[4,2,4] + 40.47428824143837 x[4,2,5]
   + 73.23163825581594 x[4,2,6] + 31.94228664971617 x[4,2,7]
   + 31.93983354304491 x[4,2,8] + 26.23408985179514 x[4,2,9]
   + 95.40565924429336 x[4,3,0] + 68.9952825112307 x[4,3,1]
   + 47.95252067332117 x[4,3,2] + 10.03125404823881 x[4,3,3]
   + 9.45107137583032 x[4,3,4] + 43.75577533662229 x[4,3,5]
   + 74.71430794999603 x[4,3,6] + 37.89203907821445 x[4,3,7]
   + 13.88142990381049 x[4,3,8] + 6.93811681911381 x[4,3,9]
   + 95.70583776084375 x[4,4,0] + 56.60665477540308 x[4,4,1]
   + 67.33131320849729 x[4,4,2] + 41.67005465929366 x[4,4,3]
   + 87.48712985119754 x[4,4,4] + 94.17185701637074 x[4,4,5]
   + 42.87074872062446 x[4,4,6] + 91.66852342624223 x[4,4,7]
   + 6.093161917265228 x[4,4,8] + 29.4753113570854 x[4,4,9]
   + 31.93244100967774 x[4,5,0] + 11.25645602653871 x[4,5,1]
   + 51.23384214983241 x[4,5,2] + 16.31828740996788 x[4,5,3]
   + 48.73675022423447 x[4,5,4] + 84.88020996536031 x[4,5,5]
   + 35.66128542789792 x[4,5,6] + 56.07028213432836 x[4,5,7]
   + 12.37364603950051 x[4,5,8] + 28.57825303700492 x[4,5,9]
   + 23.3897503384569 x[4,6,0] + 43.48212867729634 x[4,6,1]
   + 56.53560447305525 x[4,6,2] + 76.97582065332128 x[4,6,3]
   + 62.55065674143846 x[4,6,4] + 67.82269441803706 x[4,6,5]
   + 56.11723576187438 x[4,6,6] + 61.29049663975346 x[4,6,7]
   + 66.12529157188995 x[4,6,8] + 69.65364759771023 x[4,6,9]
Subject To
 supply_0_time_0: x[0,0,0] + x[0,1,0] + x[0,2,0] + x[0,3,0] + x[0,4,0]
   + x[0,5,0] + x[0,6,0] <= 8927.61955622025
 supply_0_time_1: x[0,0,1] + x[0,1,1] + x[0,2,1] + x[0,3,1] + x[0,4,1]
   + x[0,5,1] + x[0,6,1] <= 8927.61955622025
 supply_0_time_2: x[0,0,2] + x[0,1,2] + x[0,2,2] + x[0,3,2] + x[0,4,2]
   + x[0,5,2] + x[0,6,2] <= 8927.61955622025
 supply_0_time_3: x[0,0,3] + x[0,1,3] + x[0,2,3] + x[0,3,3] + x[0,4,3]
   + x[0,5,3] + x[0,6,3] <= 8927.61955622025
 supply_0_time_4: x[0,0,4] + x[0,1,4] + x[0,2,4] + x[0,3,4] + x[0,4,4]
   + x[0,5,4] + x[0,6,4] <= 8927.61955622025
 supply_0_time_5: x[0,0,5] + x[0,1,5] + x[0,2,5] + x[0,3,5] + x[0,4,5]
   + x[0,5,5] + x[0,6,5] <= 8927.61955622025
 supply_0_time_6: x[0,0,6] + x[0,1,6] + x[0,2,6] + x[0,3,6] + x[0,4,6]
   + x[0,5,6] + x[0,6,6] <= 8927.61955622025
 supply_0_time_7: x[0,0,7] + x[0,1,7] + x[0,2,7] + x[0,3,7] + x[0,4,7]
   + x[0,5,7] + x[0,6,7] <= 8927.61955622025
 supply_0_time_8: x[0,0,8] + x[0,1,8] + x[0,2,8] + x[0,3,8] + x[0,4,8]
   + x[0,5,8] + x[0,6,8] <= 8927.61955622025
 supply_0_time_9: x[0,0,9] + x[0,1,9] + x[0,2,9] + x[0,3,9] + x[0,4,9]
   + x[0,5,9] + x[0,6,9] <= 8927.61955622025
 supply_1_time_0: x[1,0,0] + x[1,1,0] + x[1,2,0] + x[1,3,0] + x[1,4,0]
   + x[1,5,0] + x[1,6,0] <= 5362.406172549983
 supply_1_time_1: x[1,0,1] + x[1,1,1] + x[1,2,1] + x[1,3,1] + x[1,4,1]
   + x[1,5,1] + x[1,6,1] <= 5362.406172549983
 supply_1_time_2: x[1,0,2] + x[1,1,2] + x[1,2,2] + x[1,3,2] + x[1,4,2]
   + x[1,5,2] + x[1,6,2] <= 5362.406172549983
 supply_1_time_3: x[1,0,3] + x[1,1,3] + x[1,2,3] + x[1,3,3] + x[1,4,3]
   + x[1,5,3] + x[1,6,3] <= 5362.406172549983
 supply_1_time_4: x[1,0,4] + x[1,1,4] + x[1,2,4] + x[1,3,4] + x[1,4,4]
   + x[1,5,4] + x[1,6,4] <= 5362.406172549983
 supply_1_time_5: x[1,0,5] + x[1,1,5] + x[1,2,5] + x[1,3,5] + x[1,4,5]
   + x[1,5,5] + x[1,6,5] <= 5362.406172549983
 supply_1_time_6: x[1,0,6] + x[1,1,6] + x[1,2,6] + x[1,3,6] + x[1,4,6]
   + x[1,5,6] + x[1,6,6] <= 5362.406172549983
 supply_1_time_7: x[1,0,7] + x[1,1,7] + x[1,2,7] + x[1,3,7] + x[1,4,7]
   + x[1,5,7] + x[1,6,7] <= 5362.406172549983
 supply_1_time_8: x[1,0,8] + x[1,1,8] + x[1,2,8] + x[1,3,8] + x[1,4,8]
   + x[1,5,8] + x[1,6,8] <= 5362.406172549983
 supply_1_time_9: x[1,0,9] + x[1,1,9] + x[1,2,9] + x[1,3,9] + x[1,4,9]
   + x[1,5,9] + x[1,6,9] <= 5362.406172549983
 supply_2_time_0: x[2,0,0] + x[2,1,0] + x[2,2,0] + x[2,3,0] + x[2,4,0]
   + x[2,5,0] + x[2,6,0] <= 1259.824981974969
 supply_2_time_1: x[2,0,1] + x[2,1,1] + x[2,2,1] + x[2,3,1] + x[2,4,1]
   + x[2,5,1] + x[2,6,1] <= 1259.824981974969
 supply_2_time_2: x[2,0,2] + x[2,1,2] + x[2,2,2] + x[2,3,2] + x[2,4,2]
   + x[2,5,2] + x[2,6,2] <= 1259.824981974969
 supply_2_time_3: x[2,0,3] + x[2,1,3] + x[2,2,3] + x[2,3,3] + x[2,4,3]
   + x[2,5,3] + x[2,6,3] <= 1259.824981974969
 supply_2_time_4: x[2,0,4] + x[2,1,4] + x[2,2,4] + x[2,3,4] + x[2,4,4]
   + x[2,5,4] + x[2,6,4] <= 1259.824981974969
 supply_2_time_5: x[2,0,5] + x[2,1,5] + x[2,2,5] + x[2,3,5] + x[2,4,5]
   + x[2,5,5] + x[2,6,5] <= 1259.824981974969
 supply_2_time_6: x[2,0,6] + x[2,1,6] + x[2,2,6] + x[2,3,6] + x[2,4,6]
   + x[2,5,6] + x[2,6,6] <= 1259.824981974969
 supply_2_time_7: x[2,0,7] + x[2,1,7] + x[2,2,7] + x[2,3,7] + x[2,4,7]
   + x[2,5,7] + x[2,6,7] <= 1259.824981974969
 supply_2_time_8: x[2,0,8] + x[2,1,8] + x[2,2,8] + x[2,3,8] + x[2,4,8]
   + x[2,5,8] + x[2,6,8] <= 1259.824981974969
 supply_2_time_9: x[2,0,9] + x[2,1,9] + x[2,2,9] + x[2,3,9] + x[2,4,9]
   + x[2,5,9] + x[2,6,9] <= 1259.824981974969
 supply_3_time_0: x[3,0,0] + x[3,1,0] + x[3,2,0] + x[3,3,0] + x[3,4,0]
   + x[3,5,0] + x[3,6,0] <= 6670.200493036545
 supply_3_time_1: x[3,0,1] + x[3,1,1] + x[3,2,1] + x[3,3,1] + x[3,4,1]
   + x[3,5,1] + x[3,6,1] <= 6670.200493036545
 supply_3_time_2: x[3,0,2] + x[3,1,2] + x[3,2,2] + x[3,3,2] + x[3,4,2]
   + x[3,5,2] + x[3,6,2] <= 6670.200493036545
 supply_3_time_3: x[3,0,3] + x[3,1,3] + x[3,2,3] + x[3,3,3] + x[3,4,3]
   + x[3,5,3] + x[3,6,3] <= 6670.200493036545
 supply_3_time_4: x[3,0,4] + x[3,1,4] + x[3,2,4] + x[3,3,4] + x[3,4,4]
   + x[3,5,4] + x[3,6,4] <= 6670.200493036545
 supply_3_time_5: x[3,0,5] + x[3,1,5] + x[3,2,5] + x[3,3,5] + x[3,4,5]
   + x[3,5,5] + x[3,6,5] <= 6670.200493036545
 supply_3_time_6: x[3,0,6] + x[3,1,6] + x[3,2,6] + x[3,3,6] + x[3,4,6]
   + x[3,5,6] + x[3,6,6] <= 6670.200493036545
 supply_3_time_7: x[3,0,7] + x[3,1,7] + x[3,2,7] + x[3,3,7] + x[3,4,7]
   + x[3,5,7] + x[3,6,7] <= 6670.200493036545
 supply_3_time_8: x[3,0,8] + x[3,1,8] + x[3,2,8] + x[3,3,8] + x[3,4,8]
   + x[3,5,8] + x[3,6,8] <= 6670.200493036545
 supply_3_time_9: x[3,0,9] + x[3,1,9] + x[3,2,9] + x[3,3,9] + x[3,4,9]
   + x[3,5,9] + x[3,6,9] <= 6670.200493036545
 supply_4_time_0: x[4,0,0] + x[4,1,0] + x[4,2,0] + x[4,3,0] + x[4,4,0]
   + x[4,5,0] + x[4,6,0] <= 8193.823599470235
 supply_4_time_1: x[4,0,1] + x[4,1,1] + x[4,2,1] + x[4,3,1] + x[4,4,1]
   + x[4,5,1] + x[4,6,1] <= 8193.823599470235
 supply_4_time_2: x[4,0,2] + x[4,1,2] + x[4,2,2] + x[4,3,2] + x[4,4,2]
   + x[4,5,2] + x[4,6,2] <= 8193.823599470235
 supply_4_time_3: x[4,0,3] + x[4,1,3] + x[4,2,3] + x[4,3,3] + x[4,4,3]
   + x[4,5,3] + x[4,6,3] <= 8193.823599470235
 supply_4_time_4: x[4,0,4] + x[4,1,4] + x[4,2,4] + x[4,3,4] + x[4,4,4]
   + x[4,5,4] + x[4,6,4] <= 8193.823599470235
 supply_4_time_5: x[4,0,5] + x[4,1,5] + x[4,2,5] + x[4,3,5] + x[4,4,5]
   + x[4,5,5] + x[4,6,5] <= 8193.823599470235
 supply_4_time_6: x[4,0,6] + x[4,1,6] + x[4,2,6] + x[4,3,6] + x[4,4,6]
   + x[4,5,6] + x[4,6,6] <= 8193.823599470235
 supply_4_time_7: x[4,0,7] + x[4,1,7] + x[4,2,7] + x[4,3,7] + x[4,4,7]
   + x[4,5,7] + x[4,6,7] <= 8193.823599470235
 supply_4_time_8: x[4,0,8] + x[4,1,8] + x[4,2,8] + x[4,3,8] + x[4,4,8]
   + x[4,5,8] + x[4,6,8] <= 8193.823599470235
 supply_4_time_9: x[4,0,9] + x[4,1,9] + x[4,2,9] + x[4,3,9] + x[4,4,9]
   + x[4,5,9] + x[4,6,9] <= 8193.823599470235
 demand_0_time_0: x[0,0,0] + x[1,0,0] + x[2,0,0] + x[3,0,0] + x[4,0,0]
   >= 7388.045425902333
 demand_0_time_1: x[0,0,1] + x[1,0,1] + x[2,0,1] + x[3,0,1] + x[4,0,1]
   >= 7388.045425902333
 demand_0_time_2: x[0,0,2] + x[1,0,2] + x[2,0,2] + x[3,0,2] + x[4,0,2]
   >= 7388.045425902333
 demand_0_time_3: x[0,0,3] + x[1,0,3] + x[2,0,3] + x[3,0,3] + x[4,0,3]
   >= 7388.045425902333
 demand_0_time_4: x[0,0,4] + x[1,0,4] + x[2,0,4] + x[3,0,4] + x[4,0,4]
   >= 7388.045425902333
 demand_0_time_5: x[0,0,5] + x[1,0,5] + x[2,0,5] + x[3,0,5] + x[4,0,5]
   >= 7388.045425902333
 demand_0_time_6: x[0,0,6] + x[1,0,6] + x[2,0,6] + x[3,0,6] + x[4,0,6]
   >= 7388.045425902333
 demand_0_time_7: x[0,0,7] + x[1,0,7] + x[2,0,7] + x[3,0,7] + x[4,0,7]
   >= 7388.045425902333
 demand_0_time_8: x[0,0,8] + x[1,0,8] + x[2,0,8] + x[3,0,8] + x[4,0,8]
   >= 7388.045425902333
 demand_0_time_9: x[0,0,9] + x[1,0,9] + x[2,0,9] + x[3,0,9] + x[4,0,9]
   >= 7388.045425902333
 demand_1_time_0: x[0,1,0] + x[1,1,0] + x[2,1,0] + x[3,1,0] + x[4,1,0]
   >= 3796.751245540016
 demand_1_time_1: x[0,1,1] + x[1,1,1] + x[2,1,1] + x[3,1,1] + x[4,1,1]
   >= 3796.751245540016
 demand_1_time_2: x[0,1,2] + x[1,1,2] + x[2,1,2] + x[3,1,2] + x[4,1,2]
   >= 3796.751245540016
 demand_1_time_3: x[0,1,3] + x[1,1,3] + x[2,1,3] + x[3,1,3] + x[4,1,3]
   >= 3796.751245540016
 demand_1_time_4: x[0,1,4] + x[1,1,4] + x[2,1,4] + x[3,1,4] + x[4,1,4]
   >= 3796.751245540016
 demand_1_time_5: x[0,1,5] + x[1,1,5] + x[2,1,5] + x[3,1,5] + x[4,1,5]
   >= 3796.751245540016
 demand_1_time_6: x[0,1,6] + x[1,1,6] + x[2,1,6] + x[3,1,6] + x[4,1,6]
   >= 3796.751245540016
 demand_1_time_7: x[0,1,7] + x[1,1,7] + x[2,1,7] + x[3,1,7] + x[4,1,7]
   >= 3796.751245540016
 demand_1_time_8: x[0,1,8] + x[1,1,8] + x[2,1,8] + x[3,1,8] + x[4,1,8]
   >= 3796.751245540016
 demand_1_time_9: x[0,1,9] + x[1,1,9] + x[2,1,9] + x[3,1,9] + x[4,1,9]
   >= 3796.751245540016
 demand_2_time_0: x[0,2,0] + x[1,2,0] + x[2,2,0] + x[3,2,0] + x[4,2,0]
   >= 1123.070180194546
 demand_2_time_1: x[0,2,1] + x[1,2,1] + x[2,2,1] + x[3,2,1] + x[4,2,1]
   >= 1123.070180194546
 demand_2_time_2: x[0,2,2] + x[1,2,2] + x[2,2,2] + x[3,2,2] + x[4,2,2]
   >= 1123.070180194546
 demand_2_time_3: x[0,2,3] + x[1,2,3] + x[2,2,3] + x[3,2,3] + x[4,2,3]
   >= 1123.070180194546
 demand_2_time_4: x[0,2,4] + x[1,2,4] + x[2,2,4] + x[3,2,4] + x[4,2,4]
   >= 1123.070180194546
 demand_2_time_5: x[0,2,5] + x[1,2,5] + x[2,2,5] + x[3,2,5] + x[4,2,5]
   >= 1123.070180194546
 demand_2_time_6: x[0,2,6] + x[1,2,6] + x[2,2,6] + x[3,2,6] + x[4,2,6]
   >= 1123.070180194546
 demand_2_time_7: x[0,2,7] + x[1,2,7] + x[2,2,7] + x[3,2,7] + x[4,2,7]
   >= 1123.070180194546
 demand_2_time_8: x[0,2,8] + x[1,2,8] + x[2,2,8] + x[3,2,8] + x[4,2,8]
   >= 1123.070180194546
 demand_2_time_9: x[0,2,9] + x[1,2,9] + x[2,2,9] + x[3,2,9] + x[4,2,9]
   >= 1123.070180194546
 demand_3_time_0: x[0,3,0] + x[1,3,0] + x[2,3,0] + x[3,3,0] + x[4,3,0]
   >= 4671.916185609123
 demand_3_time_1: x[0,3,1] + x[1,3,1] + x[2,3,1] + x[3,3,1] + x[4,3,1]
   >= 4671.916185609123
 demand_3_time_2: x[0,3,2] + x[1,3,2] + x[2,3,2] + x[3,3,2] + x[4,3,2]
   >= 4671.916185609123
 demand_3_time_3: x[0,3,3] + x[1,3,3] + x[2,3,3] + x[3,3,3] + x[4,3,3]
   >= 4671.916185609123
 demand_3_time_4: x[0,3,4] + x[1,3,4] + x[2,3,4] + x[3,3,4] + x[4,3,4]
   >= 4671.916185609123
 demand_3_time_5: x[0,3,5] + x[1,3,5] + x[2,3,5] + x[3,3,5] + x[4,3,5]
   >= 4671.916185609123
 demand_3_time_6: x[0,3,6] + x[1,3,6] + x[2,3,6] + x[3,3,6] + x[4,3,6]
   >= 4671.916185609123
 demand_3_time_7: x[0,3,7] + x[1,3,7] + x[2,3,7] + x[3,3,7] + x[4,3,7]
   >= 4671.916185609123
 demand_3_time_8: x[0,3,8] + x[1,3,8] + x[2,3,8] + x[3,3,8] + x[4,3,8]
   >= 4671.916185609123
 demand_3_time_9: x[0,3,9] + x[1,3,9] + x[2,3,9] + x[3,3,9] + x[4,3,9]
   >= 4671.916185609123
 demand_4_time_0: x[0,4,0] + x[1,4,0] + x[2,4,0] + x[3,4,0] + x[4,4,0]
   >= 3022.305935102062
 demand_4_time_1: x[0,4,1] + x[1,4,1] + x[2,4,1] + x[3,4,1] + x[4,4,1]
   >= 3022.305935102062
 demand_4_time_2: x[0,4,2] + x[1,4,2] + x[2,4,2] + x[3,4,2] + x[4,4,2]
   >= 3022.305935102062
 demand_4_time_3: x[0,4,3] + x[1,4,3] + x[2,4,3] + x[3,4,3] + x[4,4,3]
   >= 3022.305935102062
 demand_4_time_4: x[0,4,4] + x[1,4,4] + x[2,4,4] + x[3,4,4] + x[4,4,4]
   >= 3022.305935102062
 demand_4_time_5: x[0,4,5] + x[1,4,5] + x[2,4,5] + x[3,4,5] + x[4,4,5]
   >= 3022.305935102062
 demand_4_time_6: x[0,4,6] + x[1,4,6] + x[2,4,6] + x[3,4,6] + x[4,4,6]
   >= 3022.305935102062
 demand_4_time_7: x[0,4,7] + x[1,4,7] + x[2,4,7] + x[3,4,7] + x[4,4,7]
   >= 3022.305935102062
 demand_4_time_8: x[0,4,8] + x[1,4,8] + x[2,4,8] + x[3,4,8] + x[4,4,8]
   >= 3022.305935102062
 demand_4_time_9: x[0,4,9] + x[1,4,9] + x[2,4,9] + x[3,4,9] + x[4,4,9]
   >= 3022.305935102062
 demand_5_time_0: x[0,5,0] + x[1,5,0] + x[2,5,0] + x[3,5,0] + x[4,5,0]
   >= 8572.65113455332
 demand_5_time_1: x[0,5,1] + x[1,5,1] + x[2,5,1] + x[3,5,1] + x[4,5,1]
   >= 8572.65113455332
 demand_5_time_2: x[0,5,2] + x[1,5,2] + x[2,5,2] + x[3,5,2] + x[4,5,2]
   >= 8572.65113455332
 demand_5_time_3: x[0,5,3] + x[1,5,3] + x[2,5,3] + x[3,5,3] + x[4,5,3]
   >= 8572.65113455332
 demand_5_time_4: x[0,5,4] + x[1,5,4] + x[2,5,4] + x[3,5,4] + x[4,5,4]
   >= 8572.65113455332
 demand_5_time_5: x[0,5,5] + x[1,5,5] + x[2,5,5] + x[3,5,5] + x[4,5,5]
   >= 8572.65113455332
 demand_5_time_6: x[0,5,6] + x[1,5,6] + x[2,5,6] + x[3,5,6] + x[4,5,6]
   >= 8572.65113455332
 demand_5_time_7: x[0,5,7] + x[1,5,7] + x[2,5,7] + x[3,5,7] + x[4,5,7]
   >= 8572.65113455332
 demand_5_time_8: x[0,5,8] + x[1,5,8] + x[2,5,8] + x[3,5,8] + x[4,5,8]
   >= 8572.65113455332
 demand_5_time_9: x[0,5,9] + x[1,5,9] + x[2,5,9] + x[3,5,9] + x[4,5,9]
   >= 8572.65113455332
 demand_6_time_0: x[0,6,0] + x[1,6,0] + x[2,6,0] + x[3,6,0] + x[4,6,0]
   >= 2021.150061138205
 demand_6_time_1: x[0,6,1] + x[1,6,1] + x[2,6,1] + x[3,6,1] + x[4,6,1]
   >= 2021.150061138205
 demand_6_time_2: x[0,6,2] + x[1,6,2] + x[2,6,2] + x[3,6,2] + x[4,6,2]
   >= 2021.150061138205
 demand_6_time_3: x[0,6,3] + x[1,6,3] + x[2,6,3] + x[3,6,3] + x[4,6,3]
   >= 2021.150061138205
 demand_6_time_4: x[0,6,4] + x[1,6,4] + x[2,6,4] + x[3,6,4] + x[4,6,4]
   >= 2021.150061138205
 demand_6_time_5: x[0,6,5] + x[1,6,5] + x[2,6,5] + x[3,6,5] + x[4,6,5]
   >= 2021.150061138205
 demand_6_time_6: x[0,6,6] + x[1,6,6] + x[2,6,6] + x[3,6,6] + x[4,6,6]
   >= 2021.150061138205
 demand_6_time_7: x[0,6,7] + x[1,6,7] + x[2,6,7] + x[3,6,7] + x[4,6,7]
   >= 2021.150061138205
 demand_6_time_8: x[0,6,8] + x[1,6,8] + x[2,6,8] + x[3,6,8] + x[4,6,8]
   >= 2021.150061138205
 demand_6_time_9: x[0,6,9] + x[1,6,9] + x[2,6,9] + x[3,6,9] + x[4,6,9]
   >= 2021.150061138205
Bounds
End
